certificates/rado_a13_c19_N85.cnf
c Rad2 upper bound instance: x1 + 13*x2 - x3 = 19, interval [1,85]
p cnf 85 702
1 2 8 0
-1 -2 -8 0
1 3 21 0
-1 -3 -21 0
1 4 34 0
-1 -4 -34 0
1 5 47 0
-1 -5 -47 0
1 6 60 0
-1 -6 -60 0
1 7 73 0
-1 -7 -73 0
2 9 0
-2 -9 0
2 3 22 0
-2 -3 -22 0
2 4 35 0
-2 -4 -35 0
2 5 48 0
-2 -5 -48 0
2 6 61 0
-2 -6 -61 0
2 7 74 0
-2 -7 -74 0
2 3 10 0
-2 -3 -10 0
3 23 0
-3 -23 0
3 4 36 0
-3 -4 -36 0
3 5 49 0
-3 -5 -49 0
3 6 62 0
-3 -6 -62 0
3 7 75 0
-3 -7 -75 0
2 4 11 0
-2 -4 -11 0
3 4 24 0
-3 -4 -24 0
4 37 0
-4 -37 0
4 5 50 0
-4 -5 -50 0
4 6 63 0
-4 -6 -63 0
4 7 76 0
-4 -7 -76 0
2 5 12 0
-2 -5 -12 0
3 5 25 0
-3 -5 -25 0
4 5 38 0
-4 -5 -38 0
5 51 0
-5 -51 0
5 6 64 0
-5 -6 -64 0
5 7 77 0
-5 -7 -77 0
2 6 13 0
-2 -6 -13 0
3 6 26 0
-3 -6 -26 0
4 6 39 0
-4 -6 -39 0
5 6 52 0
-5 -6 -52 0
6 65 0
-6 -65 0
6 7 78 0
-6 -7 -78 0
1 7 0
-1 -7 0
2 7 14 0
-2 -7 -14 0
3 7 27 0
-3 -7 -27 0
4 7 40 0
-4 -7 -40 0
5 7 53 0
-5 -7 -53 0
6 7 66 0
-6 -7 -66 0
7 79 0
-7 -79 0
2 8 15 0
-2 -8 -15 0
3 8 28 0
-3 -8 -28 0
4 8 41 0
-4 -8 -41 0
5 8 54 0
-5 -8 -54 0
6 8 67 0
-6 -8 -67 0
7 8 80 0
-7 -8 -80 0
1 3 9 0
-1 -3 -9 0
2 9 16 0
-2 -9 -16 0
3 9 29 0
-3 -9 -29 0
4 9 42 0
-4 -9 -42 0
5 9 55 0
-5 -9 -55 0
6 9 68 0
-6 -9 -68 0
7 9 81 0
-7 -9 -81 0
1 4 10 0
-1 -4 -10 0
2 10 17 0
-2 -10 -17 0
3 10 30 0
-3 -10 -30 0
4 10 43 0
-4 -10 -43 0
5 10 56 0
-5 -10 -56 0
6 10 69 0
-6 -10 -69 0
7 10 82 0
-7 -10 -82 0
1 5 11 0
-1 -5 -11 0
2 11 18 0
-2 -11 -18 0
3 11 31 0
-3 -11 -31 0
4 11 44 0
-4 -11 -44 0
5 11 57 0
-5 -11 -57 0
6 11 70 0
-6 -11 -70 0
7 11 83 0
-7 -11 -83 0
1 6 12 0
-1 -6 -12 0
2 12 19 0
-2 -12 -19 0
3 12 32 0
-3 -12 -32 0
4 12 45 0
-4 -12 -45 0
5 12 58 0
-5 -12 -58 0
6 12 71 0
-6 -12 -71 0
7 12 84 0
-7 -12 -84 0
1 7 13 0
-1 -7 -13 0
2 13 20 0
-2 -13 -20 0
3 13 33 0
-3 -13 -33 0
4 13 46 0
-4 -13 -46 0
5 13 59 0
-5 -13 -59 0
6 13 72 0
-6 -13 -72 0
7 13 85 0
-7 -13 -85 0
1 8 14 0
-1 -8 -14 0
2 14 21 0
-2 -14 -21 0
3 14 34 0
-3 -14 -34 0
4 14 47 0
-4 -14 -47 0
5 14 60 0
-5 -14 -60 0
6 14 73 0
-6 -14 -73 0
1 9 15 0
-1 -9 -15 0
2 15 22 0
-2 -15 -22 0
3 15 35 0
-3 -15 -35 0
4 15 48 0
-4 -15 -48 0
5 15 61 0
-5 -15 -61 0
6 15 74 0
-6 -15 -74 0
1 10 16 0
-1 -10 -16 0
2 16 23 0
-2 -16 -23 0
3 16 36 0
-3 -16 -36 0
4 16 49 0
-4 -16 -49 0
5 16 62 0
-5 -16 -62 0
6 16 75 0
-6 -16 -75 0
1 11 17 0
-1 -11 -17 0
2 17 24 0
-2 -17 -24 0
3 17 37 0
-3 -17 -37 0
4 17 50 0
-4 -17 -50 0
5 17 63 0
-5 -17 -63 0
6 17 76 0
-6 -17 -76 0
1 12 18 0
-1 -12 -18 0
2 18 25 0
-2 -18 -25 0
3 18 38 0
-3 -18 -38 0
4 18 51 0
-4 -18 -51 0
5 18 64 0
-5 -18 -64 0
6 18 77 0
-6 -18 -77 0
1 13 19 0
-1 -13 -19 0
2 19 26 0
-2 -19 -26 0
3 19 39 0
-3 -19 -39 0
4 19 52 0
-4 -19 -52 0
5 19 65 0
-5 -19 -65 0
6 19 78 0
-6 -19 -78 0
1 14 20 0
-1 -14 -20 0
2 20 27 0
-2 -20 -27 0
3 20 40 0
-3 -20 -40 0
4 20 53 0
-4 -20 -53 0
5 20 66 0
-5 -20 -66 0
6 20 79 0
-6 -20 -79 0
1 15 21 0
-1 -15 -21 0
2 21 28 0
-2 -21 -28 0
3 21 41 0
-3 -21 -41 0
4 21 54 0
-4 -21 -54 0
5 21 67 0
-5 -21 -67 0
6 21 80 0
-6 -21 -80 0
1 16 22 0
-1 -16 -22 0
2 22 29 0
-2 -22 -29 0
3 22 42 0
-3 -22 -42 0
4 22 55 0
-4 -22 -55 0
5 22 68 0
-5 -22 -68 0
6 22 81 0
-6 -22 -81 0
1 17 23 0
-1 -17 -23 0
2 23 30 0
-2 -23 -30 0
3 23 43 0
-3 -23 -43 0
4 23 56 0
-4 -23 -56 0
5 23 69 0
-5 -23 -69 0
6 23 82 0
-6 -23 -82 0
1 18 24 0
-1 -18 -24 0
2 24 31 0
-2 -24 -31 0
3 24 44 0
-3 -24 -44 0
4 24 57 0
-4 -24 -57 0
5 24 70 0
-5 -24 -70 0
6 24 83 0
-6 -24 -83 0
1 19 25 0
-1 -19 -25 0
2 25 32 0
-2 -25 -32 0
3 25 45 0
-3 -25 -45 0
4 25 58 0
-4 -25 -58 0
5 25 71 0
-5 -25 -71 0
6 25 84 0
-6 -25 -84 0
1 20 26 0
-1 -20 -26 0
2 26 33 0
-2 -26 -33 0
3 26 46 0
-3 -26 -46 0
4 26 59 0
-4 -26 -59 0
5 26 72 0
-5 -26 -72 0
6 26 85 0
-6 -26 -85 0
1 21 27 0
-1 -21 -27 0
2 27 34 0
-2 -27 -34 0
3 27 47 0
-3 -27 -47 0
4 27 60 0
-4 -27 -60 0
5 27 73 0
-5 -27 -73 0
1 22 28 0
-1 -22 -28 0
2 28 35 0
-2 -28 -35 0
3 28 48 0
-3 -28 -48 0
4 28 61 0
-4 -28 -61 0
5 28 74 0
-5 -28 -74 0
1 23 29 0
-1 -23 -29 0
2 29 36 0
-2 -29 -36 0
3 29 49 0
-3 -29 -49 0
4 29 62 0
-4 -29 -62 0
5 29 75 0
-5 -29 -75 0
1 24 30 0
-1 -24 -30 0
2 30 37 0
-2 -30 -37 0
3 30 50 0
-3 -30 -50 0
4 30 63 0
-4 -30 -63 0
5 30 76 0
-5 -30 -76 0
1 25 31 0
-1 -25 -31 0
2 31 38 0
-2 -31 -38 0
3 31 51 0
-3 -31 -51 0
4 31 64 0
-4 -31 -64 0
5 31 77 0
-5 -31 -77 0
1 26 32 0
-1 -26 -32 0
2 32 39 0
-2 -32 -39 0
3 32 52 0
-3 -32 -52 0
4 32 65 0
-4 -32 -65 0
5 32 78 0
-5 -32 -78 0
1 27 33 0
-1 -27 -33 0
2 33 40 0
-2 -33 -40 0
3 33 53 0
-3 -33 -53 0
4 33 66 0
-4 -33 -66 0
5 33 79 0
-5 -33 -79 0
1 28 34 0
-1 -28 -34 0
2 34 41 0
-2 -34 -41 0
3 34 54 0
-3 -34 -54 0
4 34 67 0
-4 -34 -67 0
5 34 80 0
-5 -34 -80 0
1 29 35 0
-1 -29 -35 0
2 35 42 0
-2 -35 -42 0
3 35 55 0
-3 -35 -55 0
4 35 68 0
-4 -35 -68 0
5 35 81 0
-5 -35 -81 0
1 30 36 0
-1 -30 -36 0
2 36 43 0
-2 -36 -43 0
3 36 56 0
-3 -36 -56 0
4 36 69 0
-4 -36 -69 0
5 36 82 0
-5 -36 -82 0
1 31 37 0
-1 -31 -37 0
2 37 44 0
-2 -37 -44 0
3 37 57 0
-3 -37 -57 0
4 37 70 0
-4 -37 -70 0
5 37 83 0
-5 -37 -83 0
1 32 38 0
-1 -32 -38 0
2 38 45 0
-2 -38 -45 0
3 38 58 0
-3 -38 -58 0
4 38 71 0
-4 -38 -71 0
5 38 84 0
-5 -38 -84 0
1 33 39 0
-1 -33 -39 0
2 39 46 0
-2 -39 -46 0
3 39 59 0
-3 -39 -59 0
4 39 72 0
-4 -39 -72 0
5 39 85 0
-5 -39 -85 0
1 34 40 0
-1 -34 -40 0
2 40 47 0
-2 -40 -47 0
3 40 60 0
-3 -40 -60 0
4 40 73 0
-4 -40 -73 0
1 35 41 0
-1 -35 -41 0
2 41 48 0
-2 -41 -48 0
3 41 61 0
-3 -41 -61 0
4 41 74 0
-4 -41 -74 0
1 36 42 0
-1 -36 -42 0
2 42 49 0
-2 -42 -49 0
3 42 62 0
-3 -42 -62 0
4 42 75 0
-4 -42 -75 0
1 37 43 0
-1 -37 -43 0
2 43 50 0
-2 -43 -50 0
3 43 63 0
-3 -43 -63 0
4 43 76 0
-4 -43 -76 0
1 38 44 0
-1 -38 -44 0
2 44 51 0
-2 -44 -51 0
3 44 64 0
-3 -44 -64 0
4 44 77 0
-4 -44 -77 0
1 39 45 0
-1 -39 -45 0
2 45 52 0
-2 -45 -52 0
3 45 65 0
-3 -45 -65 0
4 45 78 0
-4 -45 -78 0
1 40 46 0
-1 -40 -46 0
2 46 53 0
-2 -46 -53 0
3 46 66 0
-3 -46 -66 0
4 46 79 0
-4 -46 -79 0
1 41 47 0
-1 -41 -47 0
2 47 54 0
-2 -47 -54 0
3 47 67 0
-3 -47 -67 0
4 47 80 0
-4 -47 -80 0
1 42 48 0
-1 -42 -48 0
2 48 55 0
-2 -48 -55 0
3 48 68 0
-3 -48 -68 0
4 48 81 0
-4 -48 -81 0
1 43 49 0
-1 -43 -49 0
2 49 56 0
-2 -49 -56 0
3 49 69 0
-3 -49 -69 0
4 49 82 0
-4 -49 -82 0
1 44 50 0
-1 -44 -50 0
2 50 57 0
-2 -50 -57 0
3 50 70 0
-3 -50 -70 0
4 50 83 0
-4 -50 -83 0
1 45 51 0
-1 -45 -51 0
2 51 58 0
-2 -51 -58 0
3 51 71 0
-3 -51 -71 0
4 51 84 0
-4 -51 -84 0
1 46 52 0
-1 -46 -52 0
2 52 59 0
-2 -52 -59 0
3 52 72 0
-3 -52 -72 0
4 52 85 0
-4 -52 -85 0
1 47 53 0
-1 -47 -53 0
2 53 60 0
-2 -53 -60 0
3 53 73 0
-3 -53 -73 0
1 48 54 0
-1 -48 -54 0
2 54 61 0
-2 -54 -61 0
3 54 74 0
-3 -54 -74 0
1 49 55 0
-1 -49 -55 0
2 55 62 0
-2 -55 -62 0
3 55 75 0
-3 -55 -75 0
1 50 56 0
-1 -50 -56 0
2 56 63 0
-2 -56 -63 0
3 56 76 0
-3 -56 -76 0
1 51 57 0
-1 -51 -57 0
2 57 64 0
-2 -57 -64 0
3 57 77 0
-3 -57 -77 0
1 52 58 0
-1 -52 -58 0
2 58 65 0
-2 -58 -65 0
3 58 78 0
-3 -58 -78 0
1 53 59 0
-1 -53 -59 0
2 59 66 0
-2 -59 -66 0
3 59 79 0
-3 -59 -79 0
1 54 60 0
-1 -54 -60 0
2 60 67 0
-2 -60 -67 0
3 60 80 0
-3 -60 -80 0
1 55 61 0
-1 -55 -61 0
2 61 68 0
-2 -61 -68 0
3 61 81 0
-3 -61 -81 0
1 56 62 0
-1 -56 -62 0
2 62 69 0
-2 -62 -69 0
3 62 82 0
-3 -62 -82 0
1 57 63 0
-1 -57 -63 0
2 63 70 0
-2 -63 -70 0
3 63 83 0
-3 -63 -83 0
1 58 64 0
-1 -58 -64 0
2 64 71 0
-2 -64 -71 0
3 64 84 0
-3 -64 -84 0
1 59 65 0
-1 -59 -65 0
2 65 72 0
-2 -65 -72 0
3 65 85 0
-3 -65 -85 0
1 60 66 0
-1 -60 -66 0
2 66 73 0
-2 -66 -73 0
1 61 67 0
-1 -61 -67 0
2 67 74 0
-2 -67 -74 0
1 62 68 0
-1 -62 -68 0
2 68 75 0
-2 -68 -75 0
1 63 69 0
-1 -63 -69 0
2 69 76 0
-2 -69 -76 0
1 64 70 0
-1 -64 -70 0
2 70 77 0
-2 -70 -77 0
1 65 71 0
-1 -65 -71 0
2 71 78 0
-2 -71 -78 0
1 66 72 0
-1 -66 -72 0
2 72 79 0
-2 -72 -79 0
1 67 73 0
-1 -67 -73 0
2 73 80 0
-2 -73 -80 0
1 68 74 0
-1 -68 -74 0
2 74 81 0
-2 -74 -81 0
1 69 75 0
-1 -69 -75 0
2 75 82 0
-2 -75 -82 0
1 70 76 0
-1 -70 -76 0
2 76 83 0
-2 -76 -83 0
1 71 77 0
-1 -71 -77 0
2 77 84 0
-2 -77 -84 0
1 72 78 0
-1 -72 -78 0
2 78 85 0
-2 -78 -85 0
1 73 79 0
-1 -73 -79 0
1 74 80 0
-1 -74 -80 0
1 75 81 0
-1 -75 -81 0
1 76 82 0
-1 -76 -82 0
1 77 83 0
-1 -77 -83 0
1 78 84 0
-1 -78 -84 0
1 79 85 0
-1 -79 -85 0
