certificates/rado_a13_c19_N85.drat
-79 -85 0
9 -6 79 0
-83 -9 -6 -7 0
12 79 0
-85 0
79 0
-7 0
1 0
13 0
-73 0
-19 0
18 6 0
d 18 77 6 0
-12 0
2 0
84 0
-9 0
-72 0
-8 0
-6 0
-20 0
-78 0
-77 0
81 0
68 0
80 0
67 0
65 0
0
